c description: Graph pigeonhole principle formula on fast_gnp_random_graph(20,10,0.9)
c generator: CNFgen (0.9.0)
c copyright: (C) 2012-2020 Massimo Lauria <massimo.lauria@uniroma1.it>
c url: https://massimolauria.net/cnfgen
c
p cnf 182 1597
1 2 3 4 5 6 7 8 9 10 0
11 12 13 14 15 16 17 18 19 0
20 21 22 23 24 25 26 27 28 0
29 30 31 32 33 34 35 36 37 38 0
39 40 41 42 43 44 45 46 0
47 48 49 50 51 52 53 54 55 0
56 57 58 59 60 61 62 63 0
64 65 66 67 68 69 70 71 72 0
73 74 75 76 77 78 79 80 81 82 0
83 84 85 86 87 88 89 90 91 0
92 93 94 95 96 97 98 99 100 0
101 102 103 104 105 106 107 108 109 0
110 111 112 113 114 115 116 117 0
118 119 120 121 122 123 124 125 126 127 0
128 129 130 131 132 133 134 135 136 137 0
138 139 140 141 142 143 144 145 146 147 0
148 149 150 151 152 153 154 155 156 157 0
158 159 160 161 162 163 164 165 166 0
167 168 169 170 171 172 173 174 0
175 176 177 178 179 180 181 182 0
-1 -11 0
-1 -20 0
-1 -29 0
-1 -39 0
-1 -47 0
-1 -56 0
-1 -64 0
-1 -73 0
-1 -83 0
-1 -92 0
-1 -101 0
-1 -110 0
-1 -118 0
-1 -128 0
-1 -138 0
-1 -148 0
-1 -158 0
-1 -167 0
-1 -175 0
-11 -20 0
-11 -29 0
-11 -39 0
-11 -47 0
-11 -56 0
-11 -64 0
-11 -73 0
-11 -83 0
-11 -92 0
-11 -101 0
-11 -110 0
-11 -118 0
-11 -128 0
-11 -138 0
-11 -148 0
-11 -158 0
-11 -167 0
-11 -175 0
-20 -29 0
-20 -39 0
-20 -47 0
-20 -56 0
-20 -64 0
-20 -73 0
-20 -83 0
-20 -92 0
-20 -101 0
-20 -110 0
-20 -118 0
-20 -128 0
-20 -138 0
-20 -148 0
-20 -158 0
-20 -167 0
-20 -175 0
-29 -39 0
-29 -47 0
-29 -56 0
-29 -64 0
-29 -73 0
-29 -83 0
-29 -92 0
-29 -101 0
-29 -110 0
-29 -118 0
-29 -128 0
-29 -138 0
-29 -148 0
-29 -158 0
-29 -167 0
-29 -175 0
-39 -47 0
-39 -56 0
-39 -64 0
-39 -73 0
-39 -83 0
-39 -92 0
-39 -101 0
-39 -110 0
-39 -118 0
-39 -128 0
-39 -138 0
-39 -148 0
-39 -158 0
-39 -167 0
-39 -175 0
-47 -56 0
-47 -64 0
-47 -73 0
-47 -83 0
-47 -92 0
-47 -101 0
-47 -110 0
-47 -118 0
-47 -128 0
-47 -138 0
-47 -148 0
-47 -158 0
-47 -167 0
-47 -175 0
-56 -64 0
-56 -73 0
-56 -83 0
-56 -92 0
-56 -101 0
-56 -110 0
-56 -118 0
-56 -128 0
-56 -138 0
-56 -148 0
-56 -158 0
-56 -167 0
-56 -175 0
-64 -73 0
-64 -83 0
-64 -92 0
-64 -101 0
-64 -110 0
-64 -118 0
-64 -128 0
-64 -138 0
-64 -148 0
-64 -158 0
-64 -167 0
-64 -175 0
-73 -83 0
-73 -92 0
-73 -101 0
-73 -110 0
-73 -118 0
-73 -128 0
-73 -138 0
-73 -148 0
-73 -158 0
-73 -167 0
-73 -175 0
-83 -92 0
-83 -101 0
-83 -110 0
-83 -118 0
-83 -128 0
-83 -138 0
-83 -148 0
-83 -158 0
-83 -167 0
-83 -175 0
-92 -101 0
-92 -110 0
-92 -118 0
-92 -128 0
-92 -138 0
-92 -148 0
-92 -158 0
-92 -167 0
-92 -175 0
-101 -110 0
-101 -118 0
-101 -128 0
-101 -138 0
-101 -148 0
-101 -158 0
-101 -167 0
-101 -175 0
-110 -118 0
-110 -128 0
-110 -138 0
-110 -148 0
-110 -158 0
-110 -167 0
-110 -175 0
-118 -128 0
-118 -138 0
-118 -148 0
-118 -158 0
-118 -167 0
-118 -175 0
-128 -138 0
-128 -148 0
-128 -158 0
-128 -167 0
-128 -175 0
-138 -148 0
-138 -158 0
-138 -167 0
-138 -175 0
-148 -158 0
-148 -167 0
-148 -175 0
-158 -167 0
-158 -175 0
-167 -175 0
-2 -12 0
-2 -21 0
-2 -30 0
-2 -40 0
-2 -48 0
-2 -57 0
-2 -65 0
-2 -74 0
-2 -84 0
-2 -93 0
-2 -102 0
-2 -119 0
-2 -129 0
-2 -139 0
-2 -149 0
-2 -159 0
-2 -168 0
-2 -176 0
-12 -21 0
-12 -30 0
-12 -40 0
-12 -48 0
-12 -57 0
-12 -65 0
-12 -74 0
-12 -84 0
-12 -93 0
-12 -102 0
-12 -119 0
-12 -129 0
-12 -139 0
-12 -149 0
-12 -159 0
-12 -168 0
-12 -176 0
-21 -30 0
-21 -40 0
-21 -48 0
-21 -57 0
-21 -65 0
-21 -74 0
-21 -84 0
-21 -93 0
-21 -102 0
-21 -119 0
-21 -129 0
-21 -139 0
-21 -149 0
-21 -159 0
-21 -168 0
-21 -176 0
-30 -40 0
-30 -48 0
-30 -57 0
-30 -65 0
-30 -74 0
-30 -84 0
-30 -93 0
-30 -102 0
-30 -119 0
-30 -129 0
-30 -139 0
-30 -149 0
-30 -159 0
-30 -168 0
-30 -176 0
-40 -48 0
-40 -57 0
-40 -65 0
-40 -74 0
-40 -84 0
-40 -93 0
-40 -102 0
-40 -119 0
-40 -129 0
-40 -139 0
-40 -149 0
-40 -159 0
-40 -168 0
-40 -176 0
-48 -57 0
-48 -65 0
-48 -74 0
-48 -84 0
-48 -93 0
-48 -102 0
-48 -119 0
-48 -129 0
-48 -139 0
-48 -149 0
-48 -159 0
-48 -168 0
-48 -176 0
-57 -65 0
-57 -74 0
-57 -84 0
-57 -93 0
-57 -102 0
-57 -119 0
-57 -129 0
-57 -139 0
-57 -149 0
-57 -159 0
-57 -168 0
-57 -176 0
-65 -74 0
-65 -84 0
-65 -93 0
-65 -102 0
-65 -119 0
-65 -129 0
-65 -139 0
-65 -149 0
-65 -159 0
-65 -168 0
-65 -176 0
-74 -84 0
-74 -93 0
-74 -102 0
-74 -119 0
-74 -129 0
-74 -139 0
-74 -149 0
-74 -159 0
-74 -168 0
-74 -176 0
-84 -93 0
-84 -102 0
-84 -119 0
-84 -129 0
-84 -139 0
-84 -149 0
-84 -159 0
-84 -168 0
-84 -176 0
-93 -102 0
-93 -119 0
-93 -129 0
-93 -139 0
-93 -149 0
-93 -159 0
-93 -168 0
-93 -176 0
-102 -119 0
-102 -129 0
-102 -139 0
-102 -149 0
-102 -159 0
-102 -168 0
-102 -176 0
-119 -129 0
-119 -139 0
-119 -149 0
-119 -159 0
-119 -168 0
-119 -176 0
-129 -139 0
-129 -149 0
-129 -159 0
-129 -168 0
-129 -176 0
-139 -149 0
-139 -159 0
-139 -168 0
-139 -176 0
-149 -159 0
-149 -168 0
-149 -176 0
-159 -168 0
-159 -176 0
-168 -176 0
-3 -13 0
-3 -22 0
-3 -31 0
-3 -41 0
-3 -58 0
-3 -66 0
-3 -75 0
-3 -85 0
-3 -94 0
-3 -103 0
-3 -120 0
-3 -130 0
-3 -140 0
-3 -150 0
-3 -177 0
-13 -22 0
-13 -31 0
-13 -41 0
-13 -58 0
-13 -66 0
-13 -75 0
-13 -85 0
-13 -94 0
-13 -103 0
-13 -120 0
-13 -130 0
-13 -140 0
-13 -150 0
-13 -177 0
-22 -31 0
-22 -41 0
-22 -58 0
-22 -66 0
-22 -75 0
-22 -85 0
-22 -94 0
-22 -103 0
-22 -120 0
-22 -130 0
-22 -140 0
-22 -150 0
-22 -177 0
-31 -41 0
-31 -58 0
-31 -66 0
-31 -75 0
-31 -85 0
-31 -94 0
-31 -103 0
-31 -120 0
-31 -130 0
-31 -140 0
-31 -150 0
-31 -177 0
-41 -58 0
-41 -66 0
-41 -75 0
-41 -85 0
-41 -94 0
-41 -103 0
-41 -120 0
-41 -130 0
-41 -140 0
-41 -150 0
-41 -177 0
-58 -66 0
-58 -75 0
-58 -85 0
-58 -94 0
-58 -103 0
-58 -120 0
-58 -130 0
-58 -140 0
-58 -150 0
-58 -177 0
-66 -75 0
-66 -85 0
-66 -94 0
-66 -103 0
-66 -120 0
-66 -130 0
-66 -140 0
-66 -150 0
-66 -177 0
-75 -85 0
-75 -94 0
-75 -103 0
-75 -120 0
-75 -130 0
-75 -140 0
-75 -150 0
-75 -177 0
-85 -94 0
-85 -103 0
-85 -120 0
-85 -130 0
-85 -140 0
-85 -150 0
-85 -177 0
-94 -103 0
-94 -120 0
-94 -130 0
-94 -140 0
-94 -150 0
-94 -177 0
-103 -120 0
-103 -130 0
-103 -140 0
-103 -150 0
-103 -177 0
-120 -130 0
-120 -140 0
-120 -150 0
-120 -177 0
-130 -140 0
-130 -150 0
-130 -177 0
-140 -150 0
-140 -177 0
-150 -177 0
-4 -14 0
-4 -23 0
-4 -32 0
-4 -42 0
-4 -49 0
-4 -59 0
-4 -67 0
-4 -76 0
-4 -86 0
-4 -95 0
-4 -104 0
-4 -111 0
-4 -121 0
-4 -131 0
-4 -141 0
-4 -151 0
-4 -160 0
-4 -169 0
-4 -178 0
-14 -23 0
-14 -32 0
-14 -42 0
-14 -49 0
-14 -59 0
-14 -67 0
-14 -76 0
-14 -86 0
-14 -95 0
-14 -104 0
-14 -111 0
-14 -121 0
-14 -131 0
-14 -141 0
-14 -151 0
-14 -160 0
-14 -169 0
-14 -178 0
-23 -32 0
-23 -42 0
-23 -49 0
-23 -59 0
-23 -67 0
-23 -76 0
-23 -86 0
-23 -95 0
-23 -104 0
-23 -111 0
-23 -121 0
-23 -131 0
-23 -141 0
-23 -151 0
-23 -160 0
-23 -169 0
-23 -178 0
-32 -42 0
-32 -49 0
-32 -59 0
-32 -67 0
-32 -76 0
-32 -86 0
-32 -95 0
-32 -104 0
-32 -111 0
-32 -121 0
-32 -131 0
-32 -141 0
-32 -151 0
-32 -160 0
-32 -169 0
-32 -178 0
-42 -49 0
-42 -59 0
-42 -67 0
-42 -76 0
-42 -86 0
-42 -95 0
-42 -104 0
-42 -111 0
-42 -121 0
-42 -131 0
-42 -141 0
-42 -151 0
-42 -160 0
-42 -169 0
-42 -178 0
-49 -59 0
-49 -67 0
-49 -76 0
-49 -86 0
-49 -95 0
-49 -104 0
-49 -111 0
-49 -121 0
-49 -131 0
-49 -141 0
-49 -151 0
-49 -160 0
-49 -169 0
-49 -178 0
-59 -67 0
-59 -76 0
-59 -86 0
-59 -95 0
-59 -104 0
-59 -111 0
-59 -121 0
-59 -131 0
-59 -141 0
-59 -151 0
-59 -160 0
-59 -169 0
-59 -178 0
-67 -76 0
-67 -86 0
-67 -95 0
-67 -104 0
-67 -111 0
-67 -121 0
-67 -131 0
-67 -141 0
-67 -151 0
-67 -160 0
-67 -169 0
-67 -178 0
-76 -86 0
-76 -95 0
-76 -104 0
-76 -111 0
-76 -121 0
-76 -131 0
-76 -141 0
-76 -151 0
-76 -160 0
-76 -169 0
-76 -178 0
-86 -95 0
-86 -104 0
-86 -111 0
-86 -121 0
-86 -131 0
-86 -141 0
-86 -151 0
-86 -160 0
-86 -169 0
-86 -178 0
-95 -104 0
-95 -111 0
-95 -121 0
-95 -131 0
-95 -141 0
-95 -151 0
-95 -160 0
-95 -169 0
-95 -178 0
-104 -111 0
-104 -121 0
-104 -131 0
-104 -141 0
-104 -151 0
-104 -160 0
-104 -169 0
-104 -178 0
-111 -121 0
-111 -131 0
-111 -141 0
-111 -151 0
-111 -160 0
-111 -169 0
-111 -178 0
-121 -131 0
-121 -141 0
-121 -151 0
-121 -160 0
-121 -169 0
-121 -178 0
-131 -141 0
-131 -151 0
-131 -160 0
-131 -169 0
-131 -178 0
-141 -151 0
-141 -160 0
-141 -169 0
-141 -178 0
-151 -160 0
-151 -169 0
-151 -178 0
-160 -169 0
-160 -178 0
-169 -178 0
-5 -24 0
-5 -33 0
-5 -43 0
-5 -50 0
-5 -68 0
-5 -77 0
-5 -87 0
-5 -112 0
-5 -122 0
-5 -132 0
-5 -142 0
-5 -152 0
-5 -161 0
-5 -170 0
-5 -179 0
-24 -33 0
-24 -43 0
-24 -50 0
-24 -68 0
-24 -77 0
-24 -87 0
-24 -112 0
-24 -122 0
-24 -132 0
-24 -142 0
-24 -152 0
-24 -161 0
-24 -170 0
-24 -179 0
-33 -43 0
-33 -50 0
-33 -68 0
-33 -77 0
-33 -87 0
-33 -112 0
-33 -122 0
-33 -132 0
-33 -142 0
-33 -152 0
-33 -161 0
-33 -170 0
-33 -179 0
-43 -50 0
-43 -68 0
-43 -77 0
-43 -87 0
-43 -112 0
-43 -122 0
-43 -132 0
-43 -142 0
-43 -152 0
-43 -161 0
-43 -170 0
-43 -179 0
-50 -68 0
-50 -77 0
-50 -87 0
-50 -112 0
-50 -122 0
-50 -132 0
-50 -142 0
-50 -152 0
-50 -161 0
-50 -170 0
-50 -179 0
-68 -77 0
-68 -87 0
-68 -112 0
-68 -122 0
-68 -132 0
-68 -142 0
-68 -152 0
-68 -161 0
-68 -170 0
-68 -179 0
-77 -87 0
-77 -112 0
-77 -122 0
-77 -132 0
-77 -142 0
-77 -152 0
-77 -161 0
-77 -170 0
-77 -179 0
-87 -112 0
-87 -122 0
-87 -132 0
-87 -142 0
-87 -152 0
-87 -161 0
-87 -170 0
-87 -179 0
-112 -122 0
-112 -132 0
-112 -142 0
-112 -152 0
-112 -161 0
-112 -170 0
-112 -179 0
-122 -132 0
-122 -142 0
-122 -152 0
-122 -161 0
-122 -170 0
-122 -179 0
-132 -142 0
-132 -152 0
-132 -161 0
-132 -170 0
-132 -179 0
-142 -152 0
-142 -161 0
-142 -170 0
-142 -179 0
-152 -161 0
-152 -170 0
-152 -179 0
-161 -170 0
-161 -179 0
-170 -179 0
-6 -15 0
-6 -25 0
-6 -34 0
-6 -51 0
-6 -60 0
-6 -69 0
-6 -78 0
-6 -96 0
-6 -105 0
-6 -113 0
-6 -123 0
-6 -133 0
-6 -143 0
-6 -153 0
-6 -162 0
-6 -171 0
-6 -180 0
-15 -25 0
-15 -34 0
-15 -51 0
-15 -60 0
-15 -69 0
-15 -78 0
-15 -96 0
-15 -105 0
-15 -113 0
-15 -123 0
-15 -133 0
-15 -143 0
-15 -153 0
-15 -162 0
-15 -171 0
-15 -180 0
-25 -34 0
-25 -51 0
-25 -60 0
-25 -69 0
-25 -78 0
-25 -96 0
-25 -105 0
-25 -113 0
-25 -123 0
-25 -133 0
-25 -143 0
-25 -153 0
-25 -162 0
-25 -171 0
-25 -180 0
-34 -51 0
-34 -60 0
-34 -69 0
-34 -78 0
-34 -96 0
-34 -105 0
-34 -113 0
-34 -123 0
-34 -133 0
-34 -143 0
-34 -153 0
-34 -162 0
-34 -171 0
-34 -180 0
-51 -60 0
-51 -69 0
-51 -78 0
-51 -96 0
-51 -105 0
-51 -113 0
-51 -123 0
-51 -133 0
-51 -143 0
-51 -153 0
-51 -162 0
-51 -171 0
-51 -180 0
-60 -69 0
-60 -78 0
-60 -96 0
-60 -105 0
-60 -113 0
-60 -123 0
-60 -133 0
-60 -143 0
-60 -153 0
-60 -162 0
-60 -171 0
-60 -180 0
-69 -78 0
-69 -96 0
-69 -105 0
-69 -113 0
-69 -123 0
-69 -133 0
-69 -143 0
-69 -153 0
-69 -162 0
-69 -171 0
-69 -180 0
-78 -96 0
-78 -105 0
-78 -113 0
-78 -123 0
-78 -133 0
-78 -143 0
-78 -153 0
-78 -162 0
-78 -171 0
-78 -180 0
-96 -105 0
-96 -113 0
-96 -123 0
-96 -133 0
-96 -143 0
-96 -153 0
-96 -162 0
-96 -171 0
-96 -180 0
-105 -113 0
-105 -123 0
-105 -133 0
-105 -143 0
-105 -153 0
-105 -162 0
-105 -171 0
-105 -180 0
-113 -123 0
-113 -133 0
-113 -143 0
-113 -153 0
-113 -162 0
-113 -171 0
-113 -180 0
-123 -133 0
-123 -143 0
-123 -153 0
-123 -162 0
-123 -171 0
-123 -180 0
-133 -143 0
-133 -153 0
-133 -162 0
-133 -171 0
-133 -180 0
-143 -153 0
-143 -162 0
-143 -171 0
-143 -180 0
-153 -162 0
-153 -171 0
-153 -180 0
-162 -171 0
-162 -180 0
-171 -180 0
-7 -16 0
-7 -26 0
-7 -35 0
-7 -44 0
-7 -52 0
-7 -61 0
-7 -79 0
-7 -88 0
-7 -97 0
-7 -106 0
-7 -114 0
-7 -124 0
-7 -134 0
-7 -144 0
-7 -154 0
-7 -163 0
-16 -26 0
-16 -35 0
-16 -44 0
-16 -52 0
-16 -61 0
-16 -79 0
-16 -88 0
-16 -97 0
-16 -106 0
-16 -114 0
-16 -124 0
-16 -134 0
-16 -144 0
-16 -154 0
-16 -163 0
-26 -35 0
-26 -44 0
-26 -52 0
-26 -61 0
-26 -79 0
-26 -88 0
-26 -97 0
-26 -106 0
-26 -114 0
-26 -124 0
-26 -134 0
-26 -144 0
-26 -154 0
-26 -163 0
-35 -44 0
-35 -52 0
-35 -61 0
-35 -79 0
-35 -88 0
-35 -97 0
-35 -106 0
-35 -114 0
-35 -124 0
-35 -134 0
-35 -144 0
-35 -154 0
-35 -163 0
-44 -52 0
-44 -61 0
-44 -79 0
-44 -88 0
-44 -97 0
-44 -106 0
-44 -114 0
-44 -124 0
-44 -134 0
-44 -144 0
-44 -154 0
-44 -163 0
-52 -61 0
-52 -79 0
-52 -88 0
-52 -97 0
-52 -106 0
-52 -114 0
-52 -124 0
-52 -134 0
-52 -144 0
-52 -154 0
-52 -163 0
-61 -79 0
-61 -88 0
-61 -97 0
-61 -106 0
-61 -114 0
-61 -124 0
-61 -134 0
-61 -144 0
-61 -154 0
-61 -163 0
-79 -88 0
-79 -97 0
-79 -106 0
-79 -114 0
-79 -124 0
-79 -134 0
-79 -144 0
-79 -154 0
-79 -163 0
-88 -97 0
-88 -106 0
-88 -114 0
-88 -124 0
-88 -134 0
-88 -144 0
-88 -154 0
-88 -163 0
-97 -106 0
-97 -114 0
-97 -124 0
-97 -134 0
-97 -144 0
-97 -154 0
-97 -163 0
-106 -114 0
-106 -124 0
-106 -134 0
-106 -144 0
-106 -154 0
-106 -163 0
-114 -124 0
-114 -134 0
-114 -144 0
-114 -154 0
-114 -163 0
-124 -134 0
-124 -144 0
-124 -154 0
-124 -163 0
-134 -144 0
-134 -154 0
-134 -163 0
-144 -154 0
-144 -163 0
-154 -163 0
-8 -17 0
-8 -36 0
-8 -53 0
-8 -62 0
-8 -70 0
-8 -80 0
-8 -89 0
-8 -98 0
-8 -107 0
-8 -115 0
-8 -125 0
-8 -135 0
-8 -145 0
-8 -155 0
-8 -164 0
-8 -172 0
-17 -36 0
-17 -53 0
-17 -62 0
-17 -70 0
-17 -80 0
-17 -89 0
-17 -98 0
-17 -107 0
-17 -115 0
-17 -125 0
-17 -135 0
-17 -145 0
-17 -155 0
-17 -164 0
-17 -172 0
-36 -53 0
-36 -62 0
-36 -70 0
-36 -80 0
-36 -89 0
-36 -98 0
-36 -107 0
-36 -115 0
-36 -125 0
-36 -135 0
-36 -145 0
-36 -155 0
-36 -164 0
-36 -172 0
-53 -62 0
-53 -70 0
-53 -80 0
-53 -89 0
-53 -98 0
-53 -107 0
-53 -115 0
-53 -125 0
-53 -135 0
-53 -145 0
-53 -155 0
-53 -164 0
-53 -172 0
-62 -70 0
-62 -80 0
-62 -89 0
-62 -98 0
-62 -107 0
-62 -115 0
-62 -125 0
-62 -135 0
-62 -145 0
-62 -155 0
-62 -164 0
-62 -172 0
-70 -80 0
-70 -89 0
-70 -98 0
-70 -107 0
-70 -115 0
-70 -125 0
-70 -135 0
-70 -145 0
-70 -155 0
-70 -164 0
-70 -172 0
-80 -89 0
-80 -98 0
-80 -107 0
-80 -115 0
-80 -125 0
-80 -135 0
-80 -145 0
-80 -155 0
-80 -164 0
-80 -172 0
-89 -98 0
-89 -107 0
-89 -115 0
-89 -125 0
-89 -135 0
-89 -145 0
-89 -155 0
-89 -164 0
-89 -172 0
-98 -107 0
-98 -115 0
-98 -125 0
-98 -135 0
-98 -145 0
-98 -155 0
-98 -164 0
-98 -172 0
-107 -115 0
-107 -125 0
-107 -135 0
-107 -145 0
-107 -155 0
-107 -164 0
-107 -172 0
-115 -125 0
-115 -135 0
-115 -145 0
-115 -155 0
-115 -164 0
-115 -172 0
-125 -135 0
-125 -145 0
-125 -155 0
-125 -164 0
-125 -172 0
-135 -145 0
-135 -155 0
-135 -164 0
-135 -172 0
-145 -155 0
-145 -164 0
-145 -172 0
-155 -164 0
-155 -172 0
-164 -172 0
-9 -18 0
-9 -27 0
-9 -37 0
-9 -45 0
-9 -54 0
-9 -63 0
-9 -71 0
-9 -81 0
-9 -90 0
-9 -99 0
-9 -108 0
-9 -116 0
-9 -126 0
-9 -136 0
-9 -146 0
-9 -156 0
-9 -165 0
-9 -173 0
-9 -181 0
-18 -27 0
-18 -37 0
-18 -45 0
-18 -54 0
-18 -63 0
-18 -71 0
-18 -81 0
-18 -90 0
-18 -99 0
-18 -108 0
-18 -116 0
-18 -126 0
-18 -136 0
-18 -146 0
-18 -156 0
-18 -165 0
-18 -173 0
-18 -181 0
-27 -37 0
-27 -45 0
-27 -54 0
-27 -63 0
-27 -71 0
-27 -81 0
-27 -90 0
-27 -99 0
-27 -108 0
-27 -116 0
-27 -126 0
-27 -136 0
-27 -146 0
-27 -156 0
-27 -165 0
-27 -173 0
-27 -181 0
-37 -45 0
-37 -54 0
-37 -63 0
-37 -71 0
-37 -81 0
-37 -90 0
-37 -99 0
-37 -108 0
-37 -116 0
-37 -126 0
-37 -136 0
-37 -146 0
-37 -156 0
-37 -165 0
-37 -173 0
-37 -181 0
-45 -54 0
-45 -63 0
-45 -71 0
-45 -81 0
-45 -90 0
-45 -99 0
-45 -108 0
-45 -116 0
-45 -126 0
-45 -136 0
-45 -146 0
-45 -156 0
-45 -165 0
-45 -173 0
-45 -181 0
-54 -63 0
-54 -71 0
-54 -81 0
-54 -90 0
-54 -99 0
-54 -108 0
-54 -116 0
-54 -126 0
-54 -136 0
-54 -146 0
-54 -156 0
-54 -165 0
-54 -173 0
-54 -181 0
-63 -71 0
-63 -81 0
-63 -90 0
-63 -99 0
-63 -108 0
-63 -116 0
-63 -126 0
-63 -136 0
-63 -146 0
-63 -156 0
-63 -165 0
-63 -173 0
-63 -181 0
-71 -81 0
-71 -90 0
-71 -99 0
-71 -108 0
-71 -116 0
-71 -126 0
-71 -136 0
-71 -146 0
-71 -156 0
-71 -165 0
-71 -173 0
-71 -181 0
-81 -90 0
-81 -99 0
-81 -108 0
-81 -116 0
-81 -126 0
-81 -136 0
-81 -146 0
-81 -156 0
-81 -165 0
-81 -173 0
-81 -181 0
-90 -99 0
-90 -108 0
-90 -116 0
-90 -126 0
-90 -136 0
-90 -146 0
-90 -156 0
-90 -165 0
-90 -173 0
-90 -181 0
-99 -108 0
-99 -116 0
-99 -126 0
-99 -136 0
-99 -146 0
-99 -156 0
-99 -165 0
-99 -173 0
-99 -181 0
-108 -116 0
-108 -126 0
-108 -136 0
-108 -146 0
-108 -156 0
-108 -165 0
-108 -173 0
-108 -181 0
-116 -126 0
-116 -136 0
-116 -146 0
-116 -156 0
-116 -165 0
-116 -173 0
-116 -181 0
-126 -136 0
-126 -146 0
-126 -156 0
-126 -165 0
-126 -173 0
-126 -181 0
-136 -146 0
-136 -156 0
-136 -165 0
-136 -173 0
-136 -181 0
-146 -156 0
-146 -165 0
-146 -173 0
-146 -181 0
-156 -165 0
-156 -173 0
-156 -181 0
-165 -173 0
-165 -181 0
-173 -181 0
-10 -19 0
-10 -28 0
-10 -38 0
-10 -46 0
-10 -55 0
-10 -72 0
-10 -82 0
-10 -91 0
-10 -100 0
-10 -109 0
-10 -117 0
-10 -127 0
-10 -137 0
-10 -147 0
-10 -157 0
-10 -166 0
-10 -174 0
-10 -182 0
-19 -28 0
-19 -38 0
-19 -46 0
-19 -55 0
-19 -72 0
-19 -82 0
-19 -91 0
-19 -100 0
-19 -109 0
-19 -117 0
-19 -127 0
-19 -137 0
-19 -147 0
-19 -157 0
-19 -166 0
-19 -174 0
-19 -182 0
-28 -38 0
-28 -46 0
-28 -55 0
-28 -72 0
-28 -82 0
-28 -91 0
-28 -100 0
-28 -109 0
-28 -117 0
-28 -127 0
-28 -137 0
-28 -147 0
-28 -157 0
-28 -166 0
-28 -174 0
-28 -182 0
-38 -46 0
-38 -55 0
-38 -72 0
-38 -82 0
-38 -91 0
-38 -100 0
-38 -109 0
-38 -117 0
-38 -127 0
-38 -137 0
-38 -147 0
-38 -157 0
-38 -166 0
-38 -174 0
-38 -182 0
-46 -55 0
-46 -72 0
-46 -82 0
-46 -91 0
-46 -100 0
-46 -109 0
-46 -117 0
-46 -127 0
-46 -137 0
-46 -147 0
-46 -157 0
-46 -166 0
-46 -174 0
-46 -182 0
-55 -72 0
-55 -82 0
-55 -91 0
-55 -100 0
-55 -109 0
-55 -117 0
-55 -127 0
-55 -137 0
-55 -147 0
-55 -157 0
-55 -166 0
-55 -174 0
-55 -182 0
-72 -82 0
-72 -91 0
-72 -100 0
-72 -109 0
-72 -117 0
-72 -127 0
-72 -137 0
-72 -147 0
-72 -157 0
-72 -166 0
-72 -174 0
-72 -182 0
-82 -91 0
-82 -100 0
-82 -109 0
-82 -117 0
-82 -127 0
-82 -137 0
-82 -147 0
-82 -157 0
-82 -166 0
-82 -174 0
-82 -182 0
-91 -100 0
-91 -109 0
-91 -117 0
-91 -127 0
-91 -137 0
-91 -147 0
-91 -157 0
-91 -166 0
-91 -174 0
-91 -182 0
-100 -109 0
-100 -117 0
-100 -127 0
-100 -137 0
-100 -147 0
-100 -157 0
-100 -166 0
-100 -174 0
-100 -182 0
-109 -117 0
-109 -127 0
-109 -137 0
-109 -147 0
-109 -157 0
-109 -166 0
-109 -174 0
-109 -182 0
-117 -127 0
-117 -137 0
-117 -147 0
-117 -157 0
-117 -166 0
-117 -174 0
-117 -182 0
-127 -137 0
-127 -147 0
-127 -157 0
-127 -166 0
-127 -174 0
-127 -182 0
-137 -147 0
-137 -157 0
-137 -166 0
-137 -174 0
-137 -182 0
-147 -157 0
-147 -166 0
-147 -174 0
-147 -182 0
-157 -166 0
-157 -174 0
-157 -182 0
-166 -174 0
-166 -182 0
-174 -182 0